************************************************************************
file with basedata            : n/a
initial value random generator: n/a
************************************************************************
projects                      :  1
jobs (incl. supersource/sink ):  32
horizon                       :  188
RESOURCES
  - renewable                 :  4   R
  - nonrenewable              :  0   N
  - doubly constrained        :  0   D
************************************************************************
PROJECT INFORMATION:
pronr.  #jobs rel.date duedate tardcost  MPM-Time
    1     30      0       53       29       53
************************************************************************
PRECEDENCE RELATIONS:
jobnr.    #modes  #successors   successors
   1        1          3           2   3   4
   2        1          1          25
   3        1          2           6  13
   4        1          3           5   7   9
   5        1          2           8  15
   6        1          3          11  24  25
   7        1          1          20
   8        1          3          10  18  23
   9        1          3          12  19  20
  10        1          2          19  22
  11        1          2          27  30
  12        1          3          14  21  26
  13        1          2          17  19
  14        1          3          16  22  23
  15        1          1          16
  16        1          3          17  24  27
  17        1          1          25
  18        1          3          21  26  31
  19        1          2          21  28
  20        1          2          23  27
  21        1          1          29
  22        1          2          24  29
  23        1          1          31
  24        1          2          28  30
  25        1          1          29
  26        1          1          30
  27        1          1          28
  28        1          1          31
  29        1          1          32
  30        1          1          32
  31        1          1          32
  32        1          0        
************************************************************************
REQUESTS/DURATIONS:
jobnr. mode duration  R 1  R 2  R 3  R 4
------------------------------------------------------------------------
  1      1     0    
  2      1     9       8   8   8   8   8   8   8   8   8
                       3   3   3   3   3   3   3   3   3
                       4   4   4   4   4   4   4   4   4
                       7   7   7   7   7   7   7   7   7
  3      1     2       3   3
                      10  10
                       7   7
                       7   7
  4      1     2       2   2
                       8   8
                       1   1
                       8   8
  5      1    10       4   4   4   4   4   4   4   4   4   4
                       5   5   5   5   5   5   5   5   5   5
                       9   9   9   9   9   9   9   9   9   9
                       5   5   5   5   5   5   5   5   5   5
  6      1    10       9   0   9   9   9   9   9   9   9   9
                       4   0   4   4   4   4   4   4   4   4
                       4   0   4   4   4   4   4   4   4   4
                       7   0   7   7   7   7   7   7   7   7
  7      1     7       9   0   9   9   9   9   0
                       1   0   1   1   1   1   0
                       5   0   5   5   5   5   0
                       7   0   7   7   7   7   0
  8      1     6       5   5   5   5   5   5
                       3   3   3   3   3   3
                       5   5   5   5   5   5
                       1   1   1   1   1   1
  9      1    10       7   7   7   7   7   7   7   7   7   7
                       6   6   6   6   6   6   6   6   6   6
                       9   9   9   9   9   9   9   9   9   9
                       2   2   2   2   2   2   2   2   2   2
 10      1     6      10  10  10  10  10   0
                       9   9   9   9   9   0
                       6   6   6   6   6   0
                       5   5   5   5   5   0
 11      1     3       7   7   7
                       1   1   1
                       9   9   9
                       8   8   8
 12      1    10      10  10  10  10  10  10   0  10  10  10
                      10  10  10  10  10  10   0  10  10  10
                       6   6   6   6   6   6   0   6   6   6
                       8   8   8   8   8   8   0   8   8   8
 13      1     8       1   1   1   1   1   1   1   1
                       5   5   5   5   5   5   5   5
                       6   6   6   6   6   6   6   6
                       5   5   5   5   5   5   5   5
 14      1     3       6   6   6
                       2   2   2
                       3   3   3
                       1   1   1
 15      1     4       9   9   9   9
                       4   4   4   4
                       6   6   6   6
                       6   6   6   6
 16      1     7       0   8   8   0   8   8   8
                       0   6   6   0   6   6   6
                       0   9   9   0   9   9   9
                       0   5   5   0   5   5   5
 17      1     8      10  10  10  10  10  10  10  10
                       6   6   6   6   6   6   6   6
                      10  10  10  10  10  10  10  10
                       3   3   3   3   3   3   3   3
 18      1    10       2   0   2   2   2   2   2   2   2   2
                       2   0   2   2   2   2   2   2   2   2
                       9   0   9   9   9   9   9   9   9   9
                       8   0   8   8   8   8   8   8   8   8
 19      1     9       0   4   4   4   0   4   4   4   4
                       0   4   4   4   0   4   4   4   4
                       0   8   8   8   0   8   8   8   8
                       0   5   5   5   0   5   5   5   5
 20      1     6       1   1   1   1   1   1
                       1   1   1   1   1   1
                       9   9   9   9   9   9
                       1   1   1   1   1   1
 21      1     7       6   6   6   6   6   0   6
                       2   2   2   2   2   0   2
                       4   4   4   4   4   0   4
                       2   2   2   2   2   0   2
 22      1     9      10  10  10  10  10  10  10  10  10
                       8   8   8   8   8   8   8   8   8
                      10  10  10  10  10  10  10  10  10
                       8   8   8   8   8   8   8   8   8
 23      1     2      10  10
                       6   6
                      10  10
                       6   6
 24      1     8       9   9   9   9   9   9   9   9
                       6   6   6   6   6   6   6   6
                       9   9   9   9   9   9   9   9
                       8   8   8   8   8   8   8   8
 25      1     7       1   1   1   1   0   0   1
                       9   9   9   9   0   0   9
                       6   6   6   6   0   0   6
                       1   1   1   1   0   0   1
 26      1     3       9   9   9
                       1   1   1
                       8   8   8
                       9   9   9
 27      1     5       6   6   6   6   6
                       8   8   8   8   8
                      10  10  10  10  10
                       4   4   4   4   4
 28      1     5       5   5   5   5   5
                       4   4   4   4   4
                       1   1   1   1   1
                       8   8   8   8   8
 29      1     6       1   1   1   1   1   1
                       2   2   2   2   2   2
                       6   6   6   6   6   6
                       5   5   5   5   5   5
 30      1     2       0   7
                       0   2
                       0   4
                       0  10
 31      1     4       4   4   4   0
                       7   7   7   0
                       5   5   5   0
                       2   2   2   0
 32      1     0    
************************************************************************
RESOURCEAVAILABILITIES:
  R 1  R 2  R 3  R 4

  16  16  16  16  16  16  16   0  16   0  16   0  16  16  16  16  16  16  16  16  16  16  16  16   0  16  16  16  16  16  16   0  16  16  16  16  16  16  16  16   0  16  16   0  16  16  16  16  16  16  16  16  16  16  16  16  16  16  16  16  16  16  16  16  16   0  16  16  16  16  16  16  16  16  16  16  16  16   0   0  16  16  16   0  16  16  16  16  16  16  16  16  16  16  16  16   0  16  16  16  16  16  16  16  16   0  16  16  16  16  16  16  16  16  16  16  16   0  16  16  16  16  16  16  16  16  16   0  16  16  16   0  16  16   0  16  16  16  16  16  16  16  16  16  16  16  16  16  16  16  16  16  16  16  16  16  16  16  16  16  16  16  16  16  16  16  16  16   0  16  16  16  16  16  16  16  16  16  16  16  16  16  16  16  16  16   0  16

  13  13  13  13  13  13  13   0  13   0  13   0  13  13  13  13  13  13  13  13  13  13  13  13   0  13  13  13  13  13  13   0  13  13  13  13  13  13  13  13   0  13  13   0  13  13  13  13  13  13  13  13  13  13  13  13  13  13  13  13  13  13  13  13  13   0  13  13  13  13  13  13  13  13  13  13  13  13   0   0  13  13  13   0  13  13  13  13  13  13  13  13  13  13  13  13   0  13  13  13  13  13  13  13  13   0  13  13  13  13  13  13  13  13  13  13  13   0  13  13  13  13  13  13  13  13  13   0  13  13  13   0  13  13   0  13  13  13  13  13  13  13  13  13  13  13  13  13  13  13  13  13  13  13  13  13  13  13  13  13  13  13  13  13  13  13  13  13   0  13  13  13  13  13  13  13  13  13  13  13  13  13  13  13  13  13   0  13

  17  17  17  17  17  17  17   0  17   0  17   0  17  17  17  17  17  17  17  17  17  17  17  17   0  17  17  17  17  17  17   0  17  17  17  17  17  17  17  17   0  17  17   0  17  17  17  17  17  17  17  17  17  17  17  17  17  17  17  17  17  17  17  17  17   0  17  17  17  17  17  17  17  17  17  17  17  17   0   0  17  17  17   0  17  17  17  17  17  17  17  17  17  17  17  17   0  17  17  17  17  17  17  17  17   0  17  17  17  17  17  17  17  17  17  17  17   0  17  17  17  17  17  17  17  17  17   0  17  17  17   0  17  17   0  17  17  17  17  17  17  17  17  17  17  17  17  17  17  17  17  17  17  17  17  17  17  17  17  17  17  17  17  17  17  17  17  17   0  17  17  17  17  17  17  17  17  17  17  17  17  17  17  17  17  17   0  17

  15  15  15  15  15  15  15   0  15   0  15   0  15  15  15  15  15  15  15  15  15  15  15  15   0  15  15  15  15  15  15   0  15  15  15  15  15  15  15  15   0  15  15   0  15  15  15  15  15  15  15  15  15  15  15  15  15  15  15  15  15  15  15  15  15   0  15  15  15  15  15  15  15  15  15  15  15  15   0   0  15  15  15   0  15  15  15  15  15  15  15  15  15  15  15  15   0  15  15  15  15  15  15  15  15   0  15  15  15  15  15  15  15  15  15  15  15   0  15  15  15  15  15  15  15  15  15   0  15  15  15   0  15  15   0  15  15  15  15  15  15  15  15  15  15  15  15  15  15  15  15  15  15  15  15  15  15  15  15  15  15  15  15  15  15  15  15  15   0  15  15  15  15  15  15  15  15  15  15  15  15  15  15  15  15  15   0  15

************************************************************************
